NAME : random_5
COMMENT : 49 random nodes
TYPE : TSP
DIMENSION : 49
EDGE_WEIGHT_TYPE : EUC_2D
NODE_COORD_SECTION
1 5812 6229
2 2320 2368
3 3370 534
4 -1109 837
5 5711 -2234
6 5736 -4710
7 -4043 920
8 -5315 4878
9 -246 2522
10 -1604 -1135
11 221 7337
12 -4258 1579
13 -3204 -4890
14 148 123
15 4144 -1933
16 -1874 -49
17 -5951 -2119
18 -1076 -328
19 4227 1786
20 -4500 4539
21 -577 1698
22 -6053 721
23 3102 7409
24 -6101 1483
25 622 -5676
26 -2941 5122
27 4182 5096
28 -601 -2984
29 5647 -1054
30 5240 -5137
31 408 3540
32 4602 -3526
33 1579 3103
34 2140 1919
35 -5356 -4387
36 -1619 3522
37 1689 2917
38 2239 -4446
39 -2764 2826
40 996 -1020
41 -562 854
42 2367 -4437
43 -4904 467
44 7241 5756
45 5142 -2487
46 1397 3903
47 1360 -4921
48 -1020 -2426
49 -4238 -4575
EOF